c WARNING: for repeatability, setting FPU to use double precision
c ============================[ Problem Statistics ]=============================
c |                                                                             |
c |  Number of variables:           200                                         |
c |  Number of clauses:             860                                         |
c |  Parse time:                   0.00 s                                       |
c |  Eliminated clauses:           0.00 Mb                                      |
c |  Simplification time:          0.00 s                                       |
c |                                                                             |
c ============================[ Search Statistics ]==============================
c | Conflicts |          ORIGINAL         |          LEARNT          | Progress |
c |           |    Vars  Clauses Literals |    Limit  Clauses Lit/Cl |          |
c ===============================================================================
c |      5000 |     195      855     2588 |      946     4258     12 |  0.003 % | 1 5000 | 0 0.8 (0.8) 1.4 (1.4) 5 (5-10) 15000 0.02
c |     10000 |     195      855     2588 |     2195     8259     11 |  0.003 % | 2 5000 | 0 0.8 (0.8) 1.4 (1.4) 5 (5-10) 15000 0.02
c |     15000 |     195      855     2588 |     3381    12313     11 |  0.005 % | 2 7500 | 0 0.8 (0.8) 1.4 (1.4) 5 (5-10) 15000 0.02
c |     20000 |     194      847     2564 |     3831     7416     10 |  0.510 % | 2 10000 | 0 0.8 (0.8) 1.4 (1.4) 5 (5-10) 15000 0.02
c ===============================================================================
c restarts              : 2
c conflicts             : 22853          (70978 /sec)
c decisions             : 26649          (0.00 % random) (82767 /sec)
c propagations          : 790942         (2456532 /sec)
c conflict literals     : 240697         (24.58 % deleted)
c Memory used           : 6.00 MB
c CPU time              : 0.321975 s
c 
s UNSATISFIABLE
